Running for instance ./models/rc206.txt
Generating routes...
Execution time:  3.072856  seconds
Academic license - for non-commercial use only
Warning: constraint name "Cliente esta na rota x1" has a space
Optimize a model with 26 rows, 10000 columns and 73515 nonzeros
Variable types: 0 continuous, 10000 integer (0 binary)
Coefficient statistics:
  Matrix range     [1e+00, 1e+00]
  Objective range  [6e+01, 4e+02]
  Bounds range     [1e+00, 1e+00]
  RHS range        [1e+00, 2e+01]
Found heuristic solution: objective 869.7746020
Presolve removed 1 rows and 3859 columns
Presolve time: 0.10s
Presolved: 25 rows, 6141 columns, 39619 nonzeros
Variable types: 0 continuous, 6141 integer (6141 binary)

Root relaxation: objective 4.620288e+02, 97 iterations, 0.01 seconds

    Nodes    |    Current Node    |     Objective Bounds      |     Work
 Expl Unexpl |  Obj  Depth IntInf | Incumbent    BestBd   Gap | It/Node Time

     0     0  462.02880    0   19  869.77460  462.02880  46.9%     -    0s
H    0     0                     496.4602087  462.02880  6.94%     -    0s
     0     0  473.49441    0   10  496.46021  473.49441  4.63%     -    0s
     0     0  474.20092    0    3  496.46021  474.20092  4.48%     -    0s
     0     0  474.27773    0    3  496.46021  474.27773  4.47%     -    0s
     0     0  480.24727    0   16  496.46021  480.24727  3.27%     -    0s
     0     0  481.83828    0   16  496.46021  481.83828  2.95%     -    0s
     0     0  482.35858    0   15  496.46021  482.35858  2.84%     -    0s
     0     0  482.67748    0   19  496.46021  482.67748  2.78%     -    0s
     0     0  483.39532    0   19  496.46021  483.39532  2.63%     -    0s
     0     0  483.85332    0   16  496.46021  483.85332  2.54%     -    0s
     0     0  485.09051    0   15  496.46021  485.09051  2.29%     -    0s
     0     0  485.15083    0   10  496.46021  485.15083  2.28%     -    0s
     0     0 infeasible    0       496.46021  496.46021  0.00%     -    0s

Explored 1 nodes (174 simplex iterations) in 0.25 seconds
Thread count was 8 (of 8 available processors)

Solution count 2: 496.46 869.775 

Optimal solution found (tolerance 1.00e-04)
Best objective 4.964602086734e+02, best bound 4.964602086734e+02, gap 0.0000%

Routes:
20
22 23 21 18 19
12 16 15 11 14 10 9 25 24 17 13
2 5 6 7 8 1 3 4

Distance: 496.460208673
Execution time:  4.44974  seconds
